; benchmark generated from python API
(set-info :status unknown)
(declare-fun x_months () Int)
(declare-fun x_beta () Int)
(assert
 (<= (- 1202) x_months))
(assert
 (>= 1209 x_months))
(assert
 (let ((?x1305 (mod x_months 48)))
 (let ((?x13 ((as const (Array Int Int)) 0)))
 (let ((?x15 (store ?x13 0 31)))
 (let ((?x18 (store ?x15 1 30)))
 (let ((?x20 (store ?x18 2 31)))
 (let ((?x22 (store ?x20 3 30)))
 (let ((?x24 (store ?x22 4 31)))
 (let ((?x26 (store ?x24 5 31)))
 (let ((?x28 (store ?x26 6 30)))
 (let ((?x30 (store ?x28 7 31)))
 (let ((?x32 (store ?x30 8 30)))
 (let ((?x34 (store ?x32 9 31)))
 (let ((?x36 (store ?x34 10 31)))
 (let ((?x39 (store ?x36 11 28)))
 (let ((?x41 (store ?x39 12 31)))
 (let ((?x43 (store ?x41 13 30)))
 (let ((?x45 (store ?x43 14 31)))
 (let ((?x47 (store ?x45 15 30)))
 (let ((?x49 (store ?x47 16 31)))
 (let ((?x51 (store ?x49 17 31)))
 (let ((?x53 (store ?x51 18 30)))
 (let ((?x55 (store ?x53 19 31)))
 (let ((?x57 (store ?x55 20 30)))
 (let ((?x59 (store ?x57 21 31)))
 (let ((?x61 (store ?x59 22 31)))
 (let ((?x63 (store ?x61 23 28)))
 (let ((?x65 (store ?x63 24 31)))
 (let ((?x67 (store ?x65 25 30)))
 (let ((?x69 (store ?x67 26 31)))
 (let ((?x71 (store ?x69 27 30)))
 (let ((?x72 (store ?x71 28 31)))
 (let ((?x74 (store ?x72 29 31)))
 (let ((?x75 (store ?x74 30 30)))
 (let ((?x76 (store ?x75 31 31)))
 (let ((?x78 (store ?x76 32 30)))
 (let ((?x80 (store ?x78 33 31)))
 (let ((?x82 (store ?x80 34 31)))
 (let ((?x84 (store ?x82 35 28)))
 (let ((?x86 (store ?x84 36 31)))
 (let ((?x88 (store ?x86 37 30)))
 (let ((?x90 (store ?x88 38 31)))
 (let ((?x92 (store ?x90 39 30)))
 (let ((?x94 (store ?x92 40 31)))
 (let ((?x96 (store ?x94 41 31)))
 (let ((?x98 (store ?x96 42 30)))
 (let ((?x100 (store ?x98 43 31)))
 (let ((?x102 (store ?x100 44 30)))
 (let ((?x104 (store ?x102 45 31)))
 (let ((?x106 (store ?x104 46 31)))
 (let ((?x108 (store ?x106 47 29)))
 (let ((?x1771 (select ?x108 ?x1305)))
 (let ((?x486 (ite (or (= 22802 (+ x_months 24003)) (= 25202 (+ x_months 24003))) 28 ?x1771)))
 (let (($x873 (<= 0 x_beta)))
 (and $x873 (< x_beta ?x486))))))))))))))))))))))))))))))))))))))))))))))))))))))))
(assert
 (let (($x873 (<= 0 x_beta)))
 (or (> x_months (- (+ (* 2023 12) 1) 24003)) (and (= x_months (- (+ (* 2023 12) 1) 24003)) $x873))))
(assert
 (let ((?x2001 (+ x_months 0)))
(let ((?x2937 (mod ?x2001 48)))
(let ((?x2217 (ite (> 22803 (+ ?x2001 24003)) 1 (ite (<= 25203 (+ ?x2001 24003)) (- 1) 0))))
(let ((?x13 ((as const (Array Int Int)) 0)))
(let ((?x15 (store ?x13 0 31)))
(let ((?x18 (store ?x15 1 30)))
(let ((?x20 (store ?x18 2 31)))
(let ((?x22 (store ?x20 3 30)))
(let ((?x24 (store ?x22 4 31)))
(let ((?x26 (store ?x24 5 31)))
(let ((?x28 (store ?x26 6 30)))
(let ((?x30 (store ?x28 7 31)))
(let ((?x32 (store ?x30 8 30)))
(let ((?x34 (store ?x32 9 31)))
(let ((?x36 (store ?x34 10 31)))
(let ((?x39 (store ?x36 11 28)))
(let ((?x41 (store ?x39 12 31)))
(let ((?x43 (store ?x41 13 30)))
(let ((?x45 (store ?x43 14 31)))
(let ((?x47 (store ?x45 15 30)))
(let ((?x49 (store ?x47 16 31)))
(let ((?x51 (store ?x49 17 31)))
(let ((?x53 (store ?x51 18 30)))
(let ((?x55 (store ?x53 19 31)))
(let ((?x57 (store ?x55 20 30)))
(let ((?x59 (store ?x57 21 31)))
(let ((?x61 (store ?x59 22 31)))
(let ((?x63 (store ?x61 23 28)))
(let ((?x65 (store ?x63 24 31)))
(let ((?x67 (store ?x65 25 30)))
(let ((?x69 (store ?x67 26 31)))
(let ((?x71 (store ?x69 27 30)))
(let ((?x72 (store ?x71 28 31)))
(let ((?x74 (store ?x72 29 31)))
(let ((?x75 (store ?x74 30 30)))
(let ((?x76 (store ?x75 31 31)))
(let ((?x78 (store ?x76 32 30)))
(let ((?x80 (store ?x78 33 31)))
(let ((?x82 (store ?x80 34 31)))
(let ((?x84 (store ?x82 35 28)))
(let ((?x86 (store ?x84 36 31)))
(let ((?x88 (store ?x86 37 30)))
(let ((?x90 (store ?x88 38 31)))
(let ((?x92 (store ?x90 39 30)))
(let ((?x94 (store ?x92 40 31)))
(let ((?x96 (store ?x94 41 31)))
(let ((?x98 (store ?x96 42 30)))
(let ((?x100 (store ?x98 43 31)))
(let ((?x102 (store ?x100 44 30)))
(let ((?x104 (store ?x102 45 31)))
(let ((?x106 (store ?x104 46 31)))
(let ((?x108 (store ?x106 47 29)))
(let ((?x2942 (ite (or (= 22802 (+ ?x2001 24003)) (= 25202 (+ ?x2001 24003))) 28 (select ?x108 ?x2937))))
(let ((?x2943 (- ?x2942 1)))
(let (($x1746 (> 0 x_beta)))
(let ((?x114 (store (store (store (store ?x13 0 0) 1 31) 2 61) 3 92)))
(let ((?x122 (store (store (store (store ?x114 4 122) 5 153) 6 184) 7 214)))
(let ((?x130 (store (store (store (store ?x122 8 245) 9 275) 10 306) 11 337)))
(let ((?x138 (store (store (store (store ?x130 12 365) 13 396) 14 426) 15 457)))
(let ((?x146 (store (store (store (store ?x138 16 487) 17 518) 18 549) 19 579)))
(let ((?x154 (store (store (store (store ?x146 20 610) 21 640) 22 671) 23 702)))
(let ((?x162 (store (store (store (store ?x154 24 730) 25 761) 26 791) 27 822)))
(let ((?x170 (store (store (store (store ?x162 28 852) 29 883) 30 914) 31 944)))
(let ((?x178 (store (store (store (store ?x170 32 975) 33 1005) 34 1036) 35 1067)))
(let ((?x186 (store (store (store (store ?x178 36 1095) 37 1126) 38 1156) 39 1187)))
(let ((?x194 (store (store (store (store ?x186 40 1217) 41 1248) 42 1279) 43 1309)))
(let ((?x202 (store (store (store (store ?x194 44 1340) 45 1370) 46 1401) 47 1432)))
(let ((?x2948 (+ (select ?x202 ?x2937) (ite $x1746 0 (ite (> x_beta ?x2943) ?x2943 x_beta)))))
(let ((?x2221 (+ (+ ?x2948 ?x2217) 31)))
(let ((?x2227 (+ ?x2001 (* (div ?x2221 1461) 48))))
(let ((?x2950 (+ (+ ?x2227 (- 1 ?x2937)) 24003)))
(let ((?x1385 (select ?x202 1)))
(let ((?x2224 (mod ?x2221 1461)))
(let (($x2956 (>= ?x2224 (+ ?x1385 (ite (> 22803 ?x2950) 1 (ite (<= 25203 ?x2950) (- 1) 0))))))
(let ((?x2278 (ite (> 22803 (+ (+ ?x2227 (- 2 ?x2937)) 24003)) 1 (ite (<= 25203 (+ (+ ?x2227 (- 2 ?x2937)) 24003)) (- 1) 0))))
(let ((?x2073 (select ?x202 2)))
(let ((?x2308 (ite (> 22803 (+ (+ ?x2227 (- 3 ?x2937)) 24003)) 1 (ite (<= 25203 (+ (+ ?x2227 (- 3 ?x2937)) 24003)) (- 1) 0))))
(let ((?x1808 (select ?x202 3)))
(let ((?x2311 (ite (>= ?x2224 (+ ?x1808 ?x2308)) 3 (ite (>= ?x2224 (+ ?x2073 ?x2278)) 2 (ite $x2956 1 0)))))
(let ((?x2330 (ite (> 22803 (+ (+ ?x2227 (- 4 ?x2937)) 24003)) 1 (ite (<= 25203 (+ (+ ?x2227 (- 4 ?x2937)) 24003)) (- 1) 0))))
(let ((?x874 (select ?x202 4)))
(let ((?x2360 (ite (> 22803 (+ (+ ?x2227 (- 5 ?x2937)) 24003)) 1 (ite (<= 25203 (+ (+ ?x2227 (- 5 ?x2937)) 24003)) (- 1) 0))))
(let ((?x2209 (select ?x202 5)))
(let ((?x2370 (ite (>= ?x2224 (+ ?x2209 ?x2360)) 5 (ite (>= ?x2224 (+ ?x874 ?x2330)) 4 ?x2311))))
(let ((?x2390 (ite (> 22803 (+ (+ ?x2227 (- 6 ?x2937)) 24003)) 1 (ite (<= 25203 (+ (+ ?x2227 (- 6 ?x2937)) 24003)) (- 1) 0))))
(let ((?x1670 (select ?x202 6)))
(let ((?x2412 (ite (> 22803 (+ (+ ?x2227 (- 7 ?x2937)) 24003)) 1 (ite (<= 25203 (+ (+ ?x2227 (- 7 ?x2937)) 24003)) (- 1) 0))))
(let ((?x1427 (select ?x202 7)))
(let ((?x2426 (ite (>= ?x2224 (+ ?x1427 ?x2412)) 7 (ite (>= ?x2224 (+ ?x1670 ?x2390)) 6 ?x2370))))
(let ((?x2442 (ite (> 22803 (+ (+ ?x2227 (- 8 ?x2937)) 24003)) 1 (ite (<= 25203 (+ (+ ?x2227 (- 8 ?x2937)) 24003)) (- 1) 0))))
(let ((?x1824 (select ?x202 8)))
(let ((?x2472 (ite (> 22803 (+ (+ ?x2227 (- 9 ?x2937)) 24003)) 1 (ite (<= 25203 (+ (+ ?x2227 (- 9 ?x2937)) 24003)) (- 1) 0))))
(let ((?x1496 (select ?x202 9)))
(let ((?x2479 (ite (>= ?x2224 (+ ?x1496 ?x2472)) 9 (ite (>= ?x2224 (+ ?x1824 ?x2442)) 8 ?x2426))))
(let ((?x2498 (ite (> 22803 (+ (+ ?x2227 (- 10 ?x2937)) 24003)) 1 (ite (<= 25203 (+ (+ ?x2227 (- 10 ?x2937)) 24003)) (- 1) 0))))
(let ((?x410 (select ?x202 10)))
(let ((?x2528 (ite (> 22803 (+ (+ ?x2227 (- 11 ?x2937)) 24003)) 1 (ite (<= 25203 (+ (+ ?x2227 (- 11 ?x2937)) 24003)) (- 1) 0))))
(let ((?x2101 (select ?x202 11)))
(let ((?x2538 (ite (>= ?x2224 (+ ?x2101 ?x2528)) 11 (ite (>= ?x2224 (+ ?x410 ?x2498)) 10 ?x2479))))
(let ((?x2558 (ite (> 22803 (+ (+ ?x2227 (- 12 ?x2937)) 24003)) 1 (ite (<= 25203 (+ (+ ?x2227 (- 12 ?x2937)) 24003)) (- 1) 0))))
(let ((?x1009 (select ?x202 12)))
(let ((?x2580 (ite (> 22803 (+ (+ ?x2227 (- 13 ?x2937)) 24003)) 1 (ite (<= 25203 (+ (+ ?x2227 (- 13 ?x2937)) 24003)) (- 1) 0))))
(let ((?x967 (select ?x202 13)))
(let ((?x2591 (ite (>= ?x2224 (+ ?x967 ?x2580)) 13 (ite (>= ?x2224 (+ ?x1009 ?x2558)) 12 ?x2538))))
(let ((?x2610 (ite (> 22803 (+ (+ ?x2227 (- 14 ?x2937)) 24003)) 1 (ite (<= 25203 (+ (+ ?x2227 (- 14 ?x2937)) 24003)) (- 1) 0))))
(let ((?x559 (select ?x202 14)))
(let ((?x2640 (ite (> 22803 (+ (+ ?x2227 (- 15 ?x2937)) 24003)) 1 (ite (<= 25203 (+ (+ ?x2227 (- 15 ?x2937)) 24003)) (- 1) 0))))
(let ((?x2205 (select ?x202 15)))
(let ((?x2646 (ite (>= ?x2224 (+ ?x2205 ?x2640)) 15 (ite (>= ?x2224 (+ ?x559 ?x2610)) 14 ?x2591))))
(let ((?x2662 (ite (> 22803 (+ (+ ?x2227 (- 16 ?x2937)) 24003)) 1 (ite (<= 25203 (+ (+ ?x2227 (- 16 ?x2937)) 24003)) (- 1) 0))))
(let ((?x1676 (select ?x202 16)))
(let ((?x2692 (ite (> 22803 (+ (+ ?x2227 (- 17 ?x2937)) 24003)) 1 (ite (<= 25203 (+ (+ ?x2227 (- 17 ?x2937)) 24003)) (- 1) 0))))
(let ((?x797 (select ?x202 17)))
(let ((?x2702 (ite (>= ?x2224 (+ ?x797 ?x2692)) 17 (ite (>= ?x2224 (+ ?x1676 ?x2662)) 16 ?x2646))))
(let ((?x2714 (ite (> 22803 (+ (+ ?x2227 (- 18 ?x2937)) 24003)) 1 (ite (<= 25203 (+ (+ ?x2227 (- 18 ?x2937)) 24003)) (- 1) 0))))
(let ((?x2242 (select ?x202 18)))
(let ((?x2728 (ite (> 22803 (+ (+ ?x2227 (- 19 ?x2937)) 24003)) 1 (ite (<= 25203 (+ (+ ?x2227 (- 19 ?x2937)) 24003)) (- 1) 0))))
(let ((?x2573 (select ?x202 19)))
(let ((?x2735 (ite (>= ?x2224 (+ ?x2573 ?x2728)) 19 (ite (>= ?x2224 (+ ?x2242 ?x2714)) 18 ?x2702))))
(let ((?x2746 (ite (> 22803 (+ (+ ?x2227 (- 20 ?x2937)) 24003)) 1 (ite (<= 25203 (+ (+ ?x2227 (- 20 ?x2937)) 24003)) (- 1) 0))))
(let ((?x2366 (select ?x202 20)))
(let ((?x2766 (ite (> 22803 (+ (+ ?x2227 (- 21 ?x2937)) 24003)) 1 (ite (<= 25203 (+ (+ ?x2227 (- 21 ?x2937)) 24003)) (- 1) 0))))
(let ((?x2700 (select ?x202 21)))
(let ((?x2607 (ite (>= ?x2224 (+ ?x2700 ?x2766)) 21 (ite (>= ?x2224 (+ ?x2366 ?x2746)) 20 ?x2735))))
(let ((?x2223 (ite (> 22803 (+ (+ ?x2227 (- 22 ?x2937)) 24003)) 1 (ite (<= 25203 (+ (+ ?x2227 (- 22 ?x2937)) 24003)) (- 1) 0))))
(let ((?x2553 (select ?x202 22)))
(let ((?x2475 (ite (> 22803 (+ (+ ?x2227 (- 23 ?x2937)) 24003)) 1 (ite (<= 25203 (+ (+ ?x2227 (- 23 ?x2937)) 24003)) (- 1) 0))))
(let ((?x2449 (select ?x202 23)))
(let ((?x2657 (ite (>= ?x2224 (+ ?x2449 ?x2475)) 23 (ite (>= ?x2224 (+ ?x2553 ?x2223)) 22 ?x2607))))
(let ((?x2234 (ite (> 22803 (+ (+ ?x2227 (- 24 ?x2937)) 24003)) 1 (ite (<= 25203 (+ (+ ?x2227 (- 24 ?x2937)) 24003)) (- 1) 0))))
(let ((?x2260 (select ?x202 24)))
(let ((?x2523 (ite (> 22803 (+ (+ ?x2227 (- 25 ?x2937)) 24003)) 1 (ite (<= 25203 (+ (+ ?x2227 (- 25 ?x2937)) 24003)) (- 1) 0))))
(let ((?x2550 (select ?x202 25)))
(let ((?x2397 (ite (>= ?x2224 (+ ?x2550 ?x2523)) 25 (ite (>= ?x2224 (+ ?x2260 ?x2234)) 24 ?x2657))))
(let ((?x2673 (ite (> 22803 (+ (+ ?x2227 (- 26 ?x2937)) 24003)) 1 (ite (<= 25203 (+ (+ ?x2227 (- 26 ?x2937)) 24003)) (- 1) 0))))
(let ((?x2321 (select ?x202 26)))
(let ((?x2547 (ite (> 22803 (+ (+ ?x2227 (- 27 ?x2937)) 24003)) 1 (ite (<= 25203 (+ (+ ?x2227 (- 27 ?x2937)) 24003)) (- 1) 0))))
(let ((?x2597 (select ?x202 27)))
(let ((?x2247 (ite (>= ?x2224 (+ ?x2597 ?x2547)) 27 (ite (>= ?x2224 (+ ?x2321 ?x2673)) 26 ?x2397))))
(let ((?x2525 (ite (> 22803 (+ (+ ?x2227 (- 28 ?x2937)) 24003)) 1 (ite (<= 25203 (+ (+ ?x2227 (- 28 ?x2937)) 24003)) (- 1) 0))))
(let ((?x2437 (select ?x202 28)))
(let ((?x2695 (ite (> 22803 (+ (+ ?x2227 (- 29 ?x2937)) 24003)) 1 (ite (<= 25203 (+ (+ ?x2227 (- 29 ?x2937)) 24003)) (- 1) 0))))
(let ((?x2427 (select ?x202 29)))
(let ((?x2433 (ite (>= ?x2224 (+ ?x2427 ?x2695)) 29 (ite (>= ?x2224 (+ ?x2437 ?x2525)) 28 ?x2247))))
(let ((?x2297 (ite (> 22803 (+ (+ ?x2227 (- 30 ?x2937)) 24003)) 1 (ite (<= 25203 (+ (+ ?x2227 (- 30 ?x2937)) 24003)) (- 1) 0))))
(let ((?x2349 (select ?x202 30)))
(let ((?x2684 (ite (> 22803 (+ (+ ?x2227 (- 31 ?x2937)) 24003)) 1 (ite (<= 25203 (+ (+ ?x2227 (- 31 ?x2937)) 24003)) (- 1) 0))))
(let ((?x2555 (select ?x202 31)))
(let ((?x2514 (ite (>= ?x2224 (+ ?x2555 ?x2684)) 31 (ite (>= ?x2224 (+ ?x2349 ?x2297)) 30 ?x2433))))
(let ((?x2334 (ite (> 22803 (+ (+ ?x2227 (- 32 ?x2937)) 24003)) 1 (ite (<= 25203 (+ (+ ?x2227 (- 32 ?x2937)) 24003)) (- 1) 0))))
(let ((?x2487 (select ?x202 32)))
(let ((?x2614 (ite (> 22803 (+ (+ ?x2227 (- 33 ?x2937)) 24003)) 1 (ite (<= 25203 (+ (+ ?x2227 (- 33 ?x2937)) 24003)) (- 1) 0))))
(let ((?x2623 (select ?x202 33)))
(let ((?x2754 (ite (>= ?x2224 (+ ?x2623 ?x2614)) 33 (ite (>= ?x2224 (+ ?x2487 ?x2334)) 32 ?x2514))))
(let ((?x2255 (ite (> 22803 (+ (+ ?x2227 (- 34 ?x2937)) 24003)) 1 (ite (<= 25203 (+ (+ ?x2227 (- 34 ?x2937)) 24003)) (- 1) 0))))
(let ((?x2567 (select ?x202 34)))
(let ((?x2304 (ite (> 22803 (+ (+ ?x2227 (- 35 ?x2937)) 24003)) 1 (ite (<= 25203 (+ (+ ?x2227 (- 35 ?x2937)) 24003)) (- 1) 0))))
(let ((?x2382 (select ?x202 35)))
(let ((?x2647 (ite (>= ?x2224 (+ ?x2382 ?x2304)) 35 (ite (>= ?x2224 (+ ?x2567 ?x2255)) 34 ?x2754))))
(let ((?x2788 (ite (> 22803 (+ (+ ?x2227 (- 36 ?x2937)) 24003)) 1 (ite (<= 25203 (+ (+ ?x2227 (- 36 ?x2937)) 24003)) (- 1) 0))))
(let ((?x2284 (select ?x202 36)))
(let ((?x2802 (ite (> 22803 (+ (+ ?x2227 (- 37 ?x2937)) 24003)) 1 (ite (<= 25203 (+ (+ ?x2227 (- 37 ?x2937)) 24003)) (- 1) 0))))
(let ((?x2350 (select ?x202 37)))
(let ((?x2959 (ite (>= ?x2224 (+ ?x2350 ?x2802)) 37 (ite (>= ?x2224 (+ ?x2284 ?x2788)) 36 ?x2647))))
(let ((?x2966 (ite (> 22803 (+ (+ ?x2227 (- 38 ?x2937)) 24003)) 1 (ite (<= 25203 (+ (+ ?x2227 (- 38 ?x2937)) 24003)) (- 1) 0))))
(let ((?x2813 (select ?x202 38)))
(let ((?x2976 (ite (> 22803 (+ (+ ?x2227 (- 39 ?x2937)) 24003)) 1 (ite (<= 25203 (+ (+ ?x2227 (- 39 ?x2937)) 24003)) (- 1) 0))))
(let ((?x2824 (select ?x202 39)))
(let ((?x2979 (ite (>= ?x2224 (+ ?x2824 ?x2976)) 39 (ite (>= ?x2224 (+ ?x2813 ?x2966)) 38 ?x2959))))
(let ((?x2986 (ite (> 22803 (+ (+ ?x2227 (- 40 ?x2937)) 24003)) 1 (ite (<= 25203 (+ (+ ?x2227 (- 40 ?x2937)) 24003)) (- 1) 0))))
(let ((?x2835 (select ?x202 40)))
(let ((?x2996 (ite (> 22803 (+ (+ ?x2227 (- 41 ?x2937)) 24003)) 1 (ite (<= 25203 (+ (+ ?x2227 (- 41 ?x2937)) 24003)) (- 1) 0))))
(let ((?x2846 (select ?x202 41)))
(let ((?x2999 (ite (>= ?x2224 (+ ?x2846 ?x2996)) 41 (ite (>= ?x2224 (+ ?x2835 ?x2986)) 40 ?x2979))))
(let ((?x3006 (ite (> 22803 (+ (+ ?x2227 (- 42 ?x2937)) 24003)) 1 (ite (<= 25203 (+ (+ ?x2227 (- 42 ?x2937)) 24003)) (- 1) 0))))
(let ((?x2857 (select ?x202 42)))
(let ((?x3016 (ite (> 22803 (+ (+ ?x2227 (- 43 ?x2937)) 24003)) 1 (ite (<= 25203 (+ (+ ?x2227 (- 43 ?x2937)) 24003)) (- 1) 0))))
(let ((?x2868 (select ?x202 43)))
(let ((?x3019 (ite (>= ?x2224 (+ ?x2868 ?x3016)) 43 (ite (>= ?x2224 (+ ?x2857 ?x3006)) 42 ?x2999))))
(let ((?x3026 (ite (> 22803 (+ (+ ?x2227 (- 44 ?x2937)) 24003)) 1 (ite (<= 25203 (+ (+ ?x2227 (- 44 ?x2937)) 24003)) (- 1) 0))))
(let ((?x2879 (select ?x202 44)))
(let ((?x3036 (ite (> 22803 (+ (+ ?x2227 (- 45 ?x2937)) 24003)) 1 (ite (<= 25203 (+ (+ ?x2227 (- 45 ?x2937)) 24003)) (- 1) 0))))
(let ((?x2890 (select ?x202 45)))
(let ((?x3039 (ite (>= ?x2224 (+ ?x2890 ?x3036)) 45 (ite (>= ?x2224 (+ ?x2879 ?x3026)) 44 ?x3019))))
(let ((?x3046 (ite (> 22803 (+ (+ ?x2227 (- 46 ?x2937)) 24003)) 1 (ite (<= 25203 (+ (+ ?x2227 (- 46 ?x2937)) 24003)) (- 1) 0))))
(let ((?x2901 (select ?x202 46)))
(let ((?x3056 (ite (> 22803 (+ (+ ?x2227 (- 47 ?x2937)) 24003)) 1 (ite (<= 25203 (+ (+ ?x2227 (- 47 ?x2937)) 24003)) (- 1) 0))))
(let ((?x2912 (select ?x202 47)))
(let ((?x3059 (ite (>= ?x2224 (+ ?x2912 ?x3056)) 47 (ite (>= ?x2224 (+ ?x2901 ?x3046)) 46 ?x3039))))
(let ((?x3061 (+ ?x2227 (- ?x3059 ?x2937))))
(let ((?x3062 (+ ?x3061 24003)))
(let ((?x3068 (+ (select ?x202 ?x3059) (ite (> 22803 ?x3062) 1 (ite (<= 25203 ?x3062) (- 1) 0)))))
(let ((?x3069 (- ?x2224 ?x3068)))
(let ((?x3074 (ite (or (= 22802 ?x3062) (= 25202 ?x3062)) 28 (select ?x108 ?x3059))))
(let ((?x887 (+ x_months 1)))
(let ((?x1650 (mod ?x887 48)))
(let ((?x1121 (ite (> 22803 (+ ?x887 24003)) 1 (ite (<= 25203 (+ ?x887 24003)) (- 1) 0))))
(let ((?x1751 (ite (or (= 22802 (+ ?x887 24003)) (= 25202 (+ ?x887 24003))) 28 (select ?x108 ?x1650))))
(let ((?x1753 (- ?x1751 1)))
(let ((?x1971 (+ (select ?x202 ?x1650) (ite $x1746 0 (ite (> x_beta ?x1753) ?x1753 x_beta)))))
(let ((?x1113 (+ (+ ?x1971 ?x1121) 0)))
(let ((?x1139 (+ ?x887 (* (div ?x1113 1461) 48))))
(let ((?x1852 (+ (+ ?x1139 (- 1 ?x1650)) 24003)))
(let ((?x1043 (mod ?x1113 1461)))
(let (($x228 (>= ?x1043 (+ ?x1385 (ite (> 22803 ?x1852) 1 (ite (<= 25203 ?x1852) (- 1) 0))))))
(let ((?x1722 (ite (> 22803 (+ (+ ?x1139 (- 2 ?x1650)) 24003)) 1 (ite (<= 25203 (+ (+ ?x1139 (- 2 ?x1650)) 24003)) (- 1) 0))))
(let ((?x883 (ite (> 22803 (+ (+ ?x1139 (- 3 ?x1650)) 24003)) 1 (ite (<= 25203 (+ (+ ?x1139 (- 3 ?x1650)) 24003)) (- 1) 0))))
(let ((?x1515 (ite (>= ?x1043 (+ ?x1808 ?x883)) 3 (ite (>= ?x1043 (+ ?x2073 ?x1722)) 2 (ite $x228 1 0)))))
(let ((?x938 (ite (> 22803 (+ (+ ?x1139 (- 4 ?x1650)) 24003)) 1 (ite (<= 25203 (+ (+ ?x1139 (- 4 ?x1650)) 24003)) (- 1) 0))))
(let ((?x2204 (ite (> 22803 (+ (+ ?x1139 (- 5 ?x1650)) 24003)) 1 (ite (<= 25203 (+ (+ ?x1139 (- 5 ?x1650)) 24003)) (- 1) 0))))
(let ((?x1600 (ite (>= ?x1043 (+ ?x2209 ?x2204)) 5 (ite (>= ?x1043 (+ ?x874 ?x938)) 4 ?x1515))))
(let ((?x1714 (ite (> 22803 (+ (+ ?x1139 (- 6 ?x1650)) 24003)) 1 (ite (<= 25203 (+ (+ ?x1139 (- 6 ?x1650)) 24003)) (- 1) 0))))
(let ((?x897 (ite (> 22803 (+ (+ ?x1139 (- 7 ?x1650)) 24003)) 1 (ite (<= 25203 (+ (+ ?x1139 (- 7 ?x1650)) 24003)) (- 1) 0))))
(let ((?x497 (ite (>= ?x1043 (+ ?x1427 ?x897)) 7 (ite (>= ?x1043 (+ ?x1670 ?x1714)) 6 ?x1600))))
(let ((?x1823 (ite (> 22803 (+ (+ ?x1139 (- 8 ?x1650)) 24003)) 1 (ite (<= 25203 (+ (+ ?x1139 (- 8 ?x1650)) 24003)) (- 1) 0))))
(let ((?x1495 (ite (> 22803 (+ (+ ?x1139 (- 9 ?x1650)) 24003)) 1 (ite (<= 25203 (+ (+ ?x1139 (- 9 ?x1650)) 24003)) (- 1) 0))))
(let ((?x535 (ite (>= ?x1043 (+ ?x1496 ?x1495)) 9 (ite (>= ?x1043 (+ ?x1824 ?x1823)) 8 ?x497))))
(let ((?x224 (ite (> 22803 (+ (+ ?x1139 (- 10 ?x1650)) 24003)) 1 (ite (<= 25203 (+ (+ ?x1139 (- 10 ?x1650)) 24003)) (- 1) 0))))
(let ((?x914 (ite (> 22803 (+ (+ ?x1139 (- 11 ?x1650)) 24003)) 1 (ite (<= 25203 (+ (+ ?x1139 (- 11 ?x1650)) 24003)) (- 1) 0))))
(let ((?x1142 (ite (>= ?x1043 (+ ?x2101 ?x914)) 11 (ite (>= ?x1043 (+ ?x410 ?x224)) 10 ?x535))))
(let ((?x1007 (ite (> 22803 (+ (+ ?x1139 (- 12 ?x1650)) 24003)) 1 (ite (<= 25203 (+ (+ ?x1139 (- 12 ?x1650)) 24003)) (- 1) 0))))
(let ((?x885 (ite (> 22803 (+ (+ ?x1139 (- 13 ?x1650)) 24003)) 1 (ite (<= 25203 (+ (+ ?x1139 (- 13 ?x1650)) 24003)) (- 1) 0))))
(let ((?x408 (ite (>= ?x1043 (+ ?x967 ?x885)) 13 (ite (>= ?x1043 (+ ?x1009 ?x1007)) 12 ?x1142))))
(let ((?x319 (ite (> 22803 (+ (+ ?x1139 (- 14 ?x1650)) 24003)) 1 (ite (<= 25203 (+ (+ ?x1139 (- 14 ?x1650)) 24003)) (- 1) 0))))
(let ((?x204 (ite (> 22803 (+ (+ ?x1139 (- 15 ?x1650)) 24003)) 1 (ite (<= 25203 (+ (+ ?x1139 (- 15 ?x1650)) 24003)) (- 1) 0))))
(let ((?x2211 (ite (>= ?x1043 (+ ?x2205 ?x204)) 15 (ite (>= ?x1043 (+ ?x559 ?x319)) 14 ?x408))))
(let ((?x1684 (ite (> 22803 (+ (+ ?x1139 (- 16 ?x1650)) 24003)) 1 (ite (<= 25203 (+ (+ ?x1139 (- 16 ?x1650)) 24003)) (- 1) 0))))
(let ((?x1671 (ite (> 22803 (+ (+ ?x1139 (- 17 ?x1650)) 24003)) 1 (ite (<= 25203 (+ (+ ?x1139 (- 17 ?x1650)) 24003)) (- 1) 0))))
(let ((?x1666 (ite (>= ?x1043 (+ ?x797 ?x1671)) 17 (ite (>= ?x1043 (+ ?x1676 ?x1684)) 16 ?x2211))))
(let ((?x2240 (ite (> 22803 (+ (+ ?x1139 (- 18 ?x1650)) 24003)) 1 (ite (<= 25203 (+ (+ ?x1139 (- 18 ?x1650)) 24003)) (- 1) 0))))
(let ((?x2577 (ite (> 22803 (+ (+ ?x1139 (- 19 ?x1650)) 24003)) 1 (ite (<= 25203 (+ (+ ?x1139 (- 19 ?x1650)) 24003)) (- 1) 0))))
(let ((?x2593 (ite (>= ?x1043 (+ ?x2573 ?x2577)) 19 (ite (>= ?x1043 (+ ?x2242 ?x2240)) 18 ?x1666))))
(let ((?x2371 (ite (> 22803 (+ (+ ?x1139 (- 20 ?x1650)) 24003)) 1 (ite (<= 25203 (+ (+ ?x1139 (- 20 ?x1650)) 24003)) (- 1) 0))))
(let ((?x2699 (ite (> 22803 (+ (+ ?x1139 (- 21 ?x1650)) 24003)) 1 (ite (<= 25203 (+ (+ ?x1139 (- 21 ?x1650)) 24003)) (- 1) 0))))
(let ((?x2649 (ite (>= ?x1043 (+ ?x2700 ?x2699)) 21 (ite (>= ?x1043 (+ ?x2366 ?x2371)) 20 ?x2593))))
(let ((?x2416 (ite (> 22803 (+ (+ ?x1139 (- 22 ?x1650)) 24003)) 1 (ite (<= 25203 (+ (+ ?x1139 (- 22 ?x1650)) 24003)) (- 1) 0))))
(let ((?x2456 (ite (> 22803 (+ (+ ?x1139 (- 23 ?x1650)) 24003)) 1 (ite (<= 25203 (+ (+ ?x1139 (- 23 ?x1650)) 24003)) (- 1) 0))))
(let ((?x2481 (ite (>= ?x1043 (+ ?x2449 ?x2456)) 23 (ite (>= ?x1043 (+ ?x2553 ?x2416)) 22 ?x2649))))
(let ((?x2781 (ite (> 22803 (+ (+ ?x1139 (- 24 ?x1650)) 24003)) 1 (ite (<= 25203 (+ (+ ?x1139 (- 24 ?x1650)) 24003)) (- 1) 0))))
(let ((?x2549 (ite (> 22803 (+ (+ ?x1139 (- 25 ?x1650)) 24003)) 1 (ite (<= 25203 (+ (+ ?x1139 (- 25 ?x1650)) 24003)) (- 1) 0))))
(let ((?x2282 (ite (>= ?x1043 (+ ?x2550 ?x2549)) 25 (ite (>= ?x1043 (+ ?x2260 ?x2781)) 24 ?x2481))))
(let ((?x2721 (ite (> 22803 (+ (+ ?x1139 (- 26 ?x1650)) 24003)) 1 (ite (<= 25203 (+ (+ ?x1139 (- 26 ?x1650)) 24003)) (- 1) 0))))
(let ((?x2314 (ite (> 22803 (+ (+ ?x1139 (- 27 ?x1650)) 24003)) 1 (ite (<= 25203 (+ (+ ?x1139 (- 27 ?x1650)) 24003)) (- 1) 0))))
(let ((?x2287 (ite (>= ?x1043 (+ ?x2597 ?x2314)) 27 (ite (>= ?x1043 (+ ?x2321 ?x2721)) 26 ?x2282))))
(let ((?x2345 (ite (> 22803 (+ (+ ?x1139 (- 28 ?x1650)) 24003)) 1 (ite (<= 25203 (+ (+ ?x1139 (- 28 ?x1650)) 24003)) (- 1) 0))))
(let ((?x2401 (ite (> 22803 (+ (+ ?x1139 (- 29 ?x1650)) 24003)) 1 (ite (<= 25203 (+ (+ ?x1139 (- 29 ?x1650)) 24003)) (- 1) 0))))
(let ((?x2681 (ite (>= ?x1043 (+ ?x2427 ?x2401)) 29 (ite (>= ?x1043 (+ ?x2437 ?x2345)) 28 ?x2287))))
(let ((?x2507 (ite (> 22803 (+ (+ ?x1139 (- 30 ?x1650)) 24003)) 1 (ite (<= 25203 (+ (+ ?x1139 (- 30 ?x1650)) 24003)) (- 1) 0))))
(let ((?x2554 (ite (> 22803 (+ (+ ?x1139 (- 31 ?x1650)) 24003)) 1 (ite (<= 25203 (+ (+ ?x1139 (- 31 ?x1650)) 24003)) (- 1) 0))))
(let ((?x2518 (ite (>= ?x1043 (+ ?x2555 ?x2554)) 31 (ite (>= ?x1043 (+ ?x2349 ?x2507)) 30 ?x2681))))
(let ((?x2485 (ite (> 22803 (+ (+ ?x1139 (- 32 ?x1650)) 24003)) 1 (ite (<= 25203 (+ (+ ?x1139 (- 32 ?x1650)) 24003)) (- 1) 0))))
(let ((?x2413 (ite (> 22803 (+ (+ ?x1139 (- 33 ?x1650)) 24003)) 1 (ite (<= 25203 (+ (+ ?x1139 (- 33 ?x1650)) 24003)) (- 1) 0))))
(let ((?x2482 (ite (>= ?x1043 (+ ?x2623 ?x2413)) 33 (ite (>= ?x1043 (+ ?x2487 ?x2485)) 32 ?x2518))))
(let ((?x2469 (ite (> 22803 (+ (+ ?x1139 (- 34 ?x1650)) 24003)) 1 (ite (<= 25203 (+ (+ ?x1139 (- 34 ?x1650)) 24003)) (- 1) 0))))
(let ((?x2389 (ite (> 22803 (+ (+ ?x1139 (- 35 ?x1650)) 24003)) 1 (ite (<= 25203 (+ (+ ?x1139 (- 35 ?x1650)) 24003)) (- 1) 0))))
(let ((?x2332 (ite (>= ?x1043 (+ ?x2382 ?x2389)) 35 (ite (>= ?x1043 (+ ?x2567 ?x2469)) 34 ?x2482))))
(let ((?x2283 (ite (> 22803 (+ (+ ?x1139 (- 36 ?x1650)) 24003)) 1 (ite (<= 25203 (+ (+ ?x1139 (- 36 ?x1650)) 24003)) (- 1) 0))))
(let ((?x2356 (ite (> 22803 (+ (+ ?x1139 (- 37 ?x1650)) 24003)) 1 (ite (<= 25203 (+ (+ ?x1139 (- 37 ?x1650)) 24003)) (- 1) 0))))
(let ((?x2805 (ite (>= ?x1043 (+ ?x2350 ?x2356)) 37 (ite (>= ?x1043 (+ ?x2284 ?x2283)) 36 ?x2332))))
(let ((?x2812 (ite (> 22803 (+ (+ ?x1139 (- 38 ?x1650)) 24003)) 1 (ite (<= 25203 (+ (+ ?x1139 (- 38 ?x1650)) 24003)) (- 1) 0))))
(let ((?x2823 (ite (> 22803 (+ (+ ?x1139 (- 39 ?x1650)) 24003)) 1 (ite (<= 25203 (+ (+ ?x1139 (- 39 ?x1650)) 24003)) (- 1) 0))))
(let ((?x2827 (ite (>= ?x1043 (+ ?x2824 ?x2823)) 39 (ite (>= ?x1043 (+ ?x2813 ?x2812)) 38 ?x2805))))
(let ((?x2834 (ite (> 22803 (+ (+ ?x1139 (- 40 ?x1650)) 24003)) 1 (ite (<= 25203 (+ (+ ?x1139 (- 40 ?x1650)) 24003)) (- 1) 0))))
(let ((?x2845 (ite (> 22803 (+ (+ ?x1139 (- 41 ?x1650)) 24003)) 1 (ite (<= 25203 (+ (+ ?x1139 (- 41 ?x1650)) 24003)) (- 1) 0))))
(let ((?x2849 (ite (>= ?x1043 (+ ?x2846 ?x2845)) 41 (ite (>= ?x1043 (+ ?x2835 ?x2834)) 40 ?x2827))))
(let ((?x2856 (ite (> 22803 (+ (+ ?x1139 (- 42 ?x1650)) 24003)) 1 (ite (<= 25203 (+ (+ ?x1139 (- 42 ?x1650)) 24003)) (- 1) 0))))
(let ((?x2867 (ite (> 22803 (+ (+ ?x1139 (- 43 ?x1650)) 24003)) 1 (ite (<= 25203 (+ (+ ?x1139 (- 43 ?x1650)) 24003)) (- 1) 0))))
(let ((?x2871 (ite (>= ?x1043 (+ ?x2868 ?x2867)) 43 (ite (>= ?x1043 (+ ?x2857 ?x2856)) 42 ?x2849))))
(let ((?x2878 (ite (> 22803 (+ (+ ?x1139 (- 44 ?x1650)) 24003)) 1 (ite (<= 25203 (+ (+ ?x1139 (- 44 ?x1650)) 24003)) (- 1) 0))))
(let ((?x2889 (ite (> 22803 (+ (+ ?x1139 (- 45 ?x1650)) 24003)) 1 (ite (<= 25203 (+ (+ ?x1139 (- 45 ?x1650)) 24003)) (- 1) 0))))
(let ((?x2893 (ite (>= ?x1043 (+ ?x2890 ?x2889)) 45 (ite (>= ?x1043 (+ ?x2879 ?x2878)) 44 ?x2871))))
(let ((?x2900 (ite (> 22803 (+ (+ ?x1139 (- 46 ?x1650)) 24003)) 1 (ite (<= 25203 (+ (+ ?x1139 (- 46 ?x1650)) 24003)) (- 1) 0))))
(let ((?x2911 (ite (> 22803 (+ (+ ?x1139 (- 47 ?x1650)) 24003)) 1 (ite (<= 25203 (+ (+ ?x1139 (- 47 ?x1650)) 24003)) (- 1) 0))))
(let ((?x2915 (ite (>= ?x1043 (+ ?x2912 ?x2911)) 47 (ite (>= ?x1043 (+ ?x2901 ?x2900)) 46 ?x2893))))
(let ((?x2917 (+ ?x1139 (- ?x2915 ?x1650))))
(let ((?x2918 (+ ?x2917 24003)))
(let ((?x2924 (+ (select ?x202 ?x2915) (ite (> 22803 ?x2918) 1 (ite (<= 25203 ?x2918) (- 1) 0)))))
(let ((?x2925 (- ?x1043 ?x2924)))
(let ((?x2930 (ite (or (= 22802 ?x2918) (= 25202 ?x2918)) 28 (select ?x108 ?x2915))))
(let (($x3081 (<= (ite (= 1 (ite (>= ?x2925 ?x2930) 1 0)) (- ?x2925 ?x2930) ?x2925) (ite (= 1 (ite (>= ?x3069 ?x3074) 1 0)) (- ?x3069 ?x3074) ?x3069))))
(let ((?x3076 (ite (>= ?x3069 ?x3074) 1 0)))
(let ((?x3077 (+ ?x3061 ?x3076)))
(let ((?x2932 (ite (>= ?x2925 ?x2930) 1 0)))
(let ((?x2933 (+ ?x2917 ?x2932)))
(not (or (< ?x2933 ?x3077) (and (= ?x2933 ?x3077) $x3081))))))))))))))))))))))))))))))))))))))))))))))))))))))))))))))))))))))))))))))))))))))))))))))))))))))))))))))))))))))))))))))))))))))))))))))))))))))))))))))))))))))))))))))))))))))))))))))))))))))))))))))))))))))))))))))))))))))))))))))))))))))))))))))))))))))))))))))))))))))))))))))))
(check-sat)
